Copyright (C) 2013-2015, Filipe Brandao
Build (method = -2)
  #dp: 3231
  Step-3' Graph: 71 vertices and 1072 arcs (0.00s)
  Step-4' Graph: 71 vertices and 1072 arcs (0.00s)
  #V4/#V3 = 1.00
  #A4/#A3 = 1.00
Ready! (0.00s)
Optimize a model with 144 rows, 1073 columns and 3085 nonzeros
Found heuristic solution: objective 852
Presolve removed 42 rows and 52 columns
Presolve time: 0.01s
Presolved: 102 rows, 1021 columns, 2940 nonzeros
Variable types: 0 continuous, 1021 integer (0 binary)
Optimize a model with 102 rows, 1021 columns and 2940 nonzeros
Presolved: 102 rows, 1021 columns, 2940 nonzeros

Root barrier log...

Ordering time: 0.00s

Barrier statistics:
 AA' NZ     : 1.518e+03
 Factor NZ  : 2.891e+03
 Factor Ops : 1.089e+05 (less than 1 second per iteration)
 Threads    : 1

                  Objective                Residual
Iter       Primal          Dual         Primal    Dual     Compl     Time
   0   9.39312454e+03 -3.87871289e+04  9.93e+04 2.22e-16  1.65e+02     0s
   1   3.07660894e+03 -1.38154140e+04  1.64e+04 8.88e-16  3.00e+01     0s
   2   1.08066427e+03 -5.10373248e+03  8.66e+02 3.66e-15  3.87e+00     0s
   3   9.26552256e+02 -1.83434382e+03  5.72e+00 1.33e-15  1.33e+00     0s
   4   7.90394941e+02 -2.87323481e+02  8.77e-01 6.66e-16  5.19e-01     0s
   5   6.63617116e+02  1.32436126e+02  2.56e-01 7.77e-16  2.56e-01     0s
   6   5.78262153e+02  2.09414654e+02  6.95e-02 8.88e-16  1.78e-01     0s
   7   5.33755467e+02  4.02709865e+02  1.63e-02 6.00e-16  6.31e-02     0s
   8   5.15145702e+02  5.01073605e+02  3.04e-03 5.55e-16  6.77e-03     0s
   9   5.11529111e+02  5.10207503e+02  5.75e-04 6.09e-16  6.36e-04     0s
  10   5.11006001e+02  5.10979763e+02  5.92e-07 7.74e-16  1.26e-05     0s
  11   5.11000006e+02  5.10999980e+02  2.04e-11 5.68e-16  1.26e-08     0s
  12   5.11000000e+02  5.11000000e+02  7.16e-12 7.77e-16  1.26e-11     0s

Barrier solved model in 12 iterations and 0.01 seconds
Optimal objective 5.11000000e+02


Root relaxation: objective 5.110000e+02, 361 iterations, 0.01 seconds

    Nodes    |    Current Node    |     Objective Bounds      |     Work
 Expl Unexpl |  Obj  Depth IntInf | Incumbent    BestBd   Gap | It/Node Time

*    0     0               0     511.0000000  511.00000  0.00%     -    0s

Explored 0 nodes (361 simplex iterations) in 0.02 seconds
Thread count was 1 (of 4 available processors)

Optimal solution found (tolerance 0.00e+00)
Best objective 5.110000000000e+02, best bound 5.110000000000e+02, gap 0.0%
Preprocessing time: 0.00 seconds
Gurobi run time: 0.02 seconds
Total run time: 0.02 seconds
Objective: 511
Solution:
17 x [i=1]
13 x [i=2, i=73]
17 x [i=3, i=71]
11 x [i=4, i=70]
3 x [i=4, i=72]
17 x [i=5, i=72]
14 x [i=6, i=69]
14 x [i=7, i=67]
1 x [i=7, i=71]
1 x [i=7, i=72]
11 x [i=8, i=68]
1 x [i=8, i=73]
8 x [i=9, i=65]
15 x [i=10, i=66]
13 x [i=11, i=64]
1 x [i=11, i=65]
11 x [i=12, i=63]
2 x [i=12, i=66]
6 x [i=13, i=61]
9 x [i=13, i=62]
6 x [i=14, i=60]
4 x [i=14, i=65]
13 x [i=15, i=59]
9 x [i=16, i=58]
3 x [i=16, i=59]
10 x [i=17, i=57]
3 x [i=18, i=56]
3 x [i=18, i=57]
1 x [i=18, i=61]
12 x [i=19, i=55]
11 x [i=20, i=54]
8 x [i=20, i=56]
15 x [i=21, i=53]
2 x [i=21, i=55]
1 x [i=21, i=61]
13 x [i=22, i=52]
14 x [i=23, i=51]
8 x [i=24, i=50]
3 x [i=25, i=49]
7 x [i=25, i=50]
3 x [i=25, i=52]
14 x [i=26, i=49]
13 x [i=27, i=47]
1 x [i=27, i=48]
14 x [i=28, i=46]
8 x [i=28, i=48]
8 x [i=29, i=45]
3 x [i=29, i=48]
5 x [i=29, i=61]
4 x [i=30]
13 x [i=30, i=44]
8 x [i=31, i=43]
2 x [i=31, i=51]
11 x [i=32, i=42]
12 x [i=33, i=41]
1 x [i=34]
15 x [i=34, i=40]
3 x [i=34, i=41]
3 x [i=34, i=42]
15 x [i=35, i=39]
9 x [i=36, i=38]
11 x [i=37, i=38]
4 x [i=37, i=39]
